c 
c U(n,d) graph
c graph gen seed     : 819
c number of vertices : 70
c max number of edges: 2415
c Euclidean distance : 0.200000
c data structure     : sparse
c
c           Graph Stats
c number of vertices  : 70
c nonisolated vertices: 70
c number of edges     : 258
c edge density        : 0.106832
c max degree          : 13
c avg degree          : 7.37
c min degree          : 2
p col 70 258
e 1 66
e 1 58
e 1 53
e 1 48
e 1 35
e 1 30
e 1 14
e 1 13
e 2 66
e 2 52
e 2 34
e 2 17
e 2 12
e 2 10
e 3 64
e 3 51
e 3 44
e 3 40
e 3 39
e 3 38
e 3 37
e 3 24
e 3 18
e 3 9
e 4 70
e 4 67
e 4 63
e 4 62
e 4 60
e 4 59
e 4 33
e 4 27
e 4 23
e 4 11
e 5 65
e 5 64
e 5 51
e 5 44
e 5 37
e 5 31
e 5 29
e 6 50
e 6 41
e 6 36
e 6 21
e 6 7
e 7 63
e 7 59
e 7 50
e 7 43
e 7 41
e 7 36
e 7 21
e 8 45
e 8 42
e 8 26
e 8 20
e 9 64
e 9 51
e 9 44
e 9 39
e 9 38
e 9 37
e 9 29
e 9 24
e 9 18
e 10 70
e 10 67
e 10 66
e 10 60
e 10 58
e 10 35
e 10 34
e 10 33
e 10 30
e 10 19
e 10 12
e 11 67
e 11 62
e 11 60
e 11 34
e 11 27
e 11 23
e 12 66
e 12 34
e 12 17
e 13 53
e 13 48
e 13 35
e 13 30
e 13 14
e 14 66
e 14 58
e 14 57
e 14 53
e 14 48
e 14 35
e 14 30
e 14 19
e 15 47
e 15 25
e 15 22
e 15 16
e 16 47
e 16 25
e 16 22
e 17 52
e 17 34
e 18 51
e 18 44
e 18 40
e 18 39
e 18 38
e 18 24
e 19 70
e 19 67
e 19 66
e 19 58
e 19 57
e 19 55
e 19 35
e 19 33
e 19 30
e 19 23
e 20 54
e 20 49
e 20 45
e 20 43
e 20 42
e 20 26
e 21 50
e 21 45
e 21 41
e 21 36
e 22 39
e 23 70
e 23 67
e 23 63
e 23 62
e 23 60
e 23 59
e 23 33
e 23 27
e 24 51
e 24 39
e 24 38
e 24 37
e 25 47
e 26 54
e 26 49
e 26 45
e 26 43
e 26 42
e 27 70
e 27 67
e 27 62
e 27 60
e 27 34
e 27 33
e 28 64
e 28 61
e 28 54
e 28 44
e 29 64
e 29 51
e 29 44
e 29 37
e 29 31
e 30 66
e 30 58
e 30 53
e 30 48
e 30 35
e 31 65
e 31 64
e 31 37
e 32 61
e 32 57
e 32 55
e 32 54
e 32 49
e 33 70
e 33 67
e 33 66
e 33 60
e 33 58
e 33 57
e 33 55
e 34 62
e 34 60
e 34 52
e 35 66
e 35 58
e 35 53
e 35 48
e 36 50
e 36 45
e 36 43
e 36 41
e 37 64
e 37 51
e 37 44
e 37 38
e 38 51
e 38 39
e 39 51
e 39 40
e 40 61
e 41 45
e 41 43
e 42 55
e 42 54
e 42 49
e 42 45
e 42 43
e 43 63
e 43 59
e 43 50
e 43 45
e 44 64
e 44 61
e 44 51
e 46 68
e 46 65
e 46 56
e 48 69
e 48 66
e 48 53
e 49 57
e 49 55
e 49 54
e 50 63
e 50 59
e 51 64
e 53 69
e 53 66
e 54 61
e 54 57
e 54 55
e 55 61
e 55 58
e 55 57
e 56 68
e 56 65
e 57 61
e 57 58
e 58 70
e 58 66
e 59 63
e 60 70
e 60 67
e 60 62
e 62 70
e 62 67
e 64 65
e 65 68
e 66 70
e 67 70
